NAME : X-n1094-k157
COMMENT : "Official XL instance released for the CVRPLib Best Known Solution Challenge"
TYPE : CVRP
DIMENSION : 1094
EDGE_WEIGHT_TYPE : EUC_2D
CAPACITY : 7
NODE_COORD_SECTION
1    500  500 
2    637  198 
3    897  569 
4    37   107 
5    824  766 
6    883  720 
7    491  482 
8    428  454 
9    614  181 
10   161  223 
11   611  188 
12   196  86  
13   707  681 
14   745  882 
15   559  755 
16   635  290 
17   850  683 
18   425  455 
19   692  247 
20   530  246 
21   674  306 
22   465  295 
23   10   7   
24   493  121 
25   662  369 
26   779  101 
27   442  345 
28   548  349 
29   569  199 
30   32   113 
31   563  205 
32   681  243 
33   509  731 
34   9    123 
35   248  29  
36   604  619 
37   680  629 
38   805  187 
39   615  231 
40   336  284 
41   346  511 
42   801  389 
43   480  496 
44   490  475 
45   86   93  
46   510  467 
47   415  319 
48   117  152 
49   681  65  
50   622  220 
51   136  88  
52   854  685 
53   594  624 
54   623  276 
55   115  39  
56   839  664 
57   770  884 
58   589  144 
59   668  680 
60   185  58  
61   675  367 
62   17   57  
63   749  858 
64   551  125 
65   625  502 
66   454  399 
67   733  589 
68   506  271 
69   661  334 
70   152  467 
71   596  172 
72   687  215 
73   461  536 
74   813  707 
75   692  385 
76   569  590 
77   679  657 
78   620  211 
79   844  453 
80   452  314 
81   341  191 
82   87   96  
83   523  341 
84   436  357 
85   61   100 
86   280  459 
87   648  52  
88   578  161 
89   621  589 
90   182  269 
91   873  802 
92   816  680 
93   563  132 
94   307  123 
95   784  695 
96   444  340 
97   124  120 
98   300  426 
99   487  605 
100  802  164 
101  502  355 
102  643  258 
103  540  580 
104  18   73  
105  675  109 
106  131  116 
107  279  86  
108  957  803 
109  521  86  
110  406  560 
111  876  787 
112  969  762 
113  181  202 
114  92   78  
115  611  336 
116  575  625 
117  659  346 
118  585  536 
119  987  55  
120  625  273 
121  421  267 
122  515  760 
123  460  346 
124  505  115 
125  771  299 
126  943  705 
127  628  245 
128  515  572 
129  267  622 
130  365  505 
131  582  172 
132  513  427 
133  842  813 
134  545  450 
135  749  705 
136  74   75  
137  455  495 
138  518  68  
139  632  677 
140  956  704 
141  91   44  
142  602  604 
143  526  653 
144  853  798 
145  829  807 
146  661  682 
147  629  683 
148  380  314 
149  711  349 
150  118  87  
151  863  594 
152  727  209 
153  381  346 
154  873  328 
155  827  889 
156  558  295 
157  0    50  
158  435  747 
159  482  352 
160  615  389 
161  607  376 
162  575  234 
163  570  605 
164  871  662 
165  370  363 
166  702  969 
167  588  392 
168  706  359 
169  249  19  
170  520  461 
171  655  247 
172  513  558 
173  584  587 
174  452  405 
175  590  103 
176  189  117 
177  791  930 
178  534  467 
179  704  288 
180  588  625 
181  34   44  
182  655  100 
183  677  362 
184  732  199 
185  94   18  
186  421  322 
187  62   59  
188  950  756 
189  327  174 
190  767  221 
191  911  664 
192  801  748 
193  624  478 
194  540  182 
195  559  138 
196  69   93  
197  667  248 
198  599  366 
199  533  607 
200  605  600 
201  670  926 
202  616  337 
203  389  460 
204  583  159 
205  825  701 
206  66   16  
207  956  779 
208  525  46  
209  811  674 
210  36   115 
211  69   114 
212  6    21  
213  748  536 
214  665  513 
215  581  352 
216  683  594 
217  693  204 
218  822  707 
219  678  210 
220  159  8   
221  839  847 
222  267  503 
223  716  77  
224  670  308 
225  308  148 
226  822  119 
227  920  634 
228  581  120 
229  497  546 
230  673  211 
231  8    157 
232  580  131 
233  419  345 
234  606  420 
235  547  140 
236  441  579 
237  77   4   
238  36   128 
239  645  143 
240  679  500 
241  732  351 
242  902  746 
243  608  628 
244  570  183 
245  419  266 
246  375  509 
247  707  139 
248  631  628 
249  607  118 
250  448  400 
251  833  682 
252  80   5   
253  626  565 
254  584  590 
255  835  782 
256  548  138 
257  88   21  
258  583  271 
259  896  719 
260  582  171 
261  602  672 
262  24   219 
263  789  738 
264  26   37  
265  571  565 
266  779  627 
267  546  439 
268  44   18  
269  852  807 
270  426  328 
271  754  280 
272  33   170 
273  853  908 
274  786  724 
275  705  447 
276  247  414 
277  410  346 
278  361  401 
279  834  712 
280  661  87  
281  56   50  
282  671  902 
283  603  582 
284  979  539 
285  650  816 
286  20   202 
287  922  670 
288  606  607 
289  411  382 
290  114  82  
291  550  455 
292  700  679 
293  735  533 
294  814  215 
295  612  94  
296  933  416 
297  431  214 
298  648  183 
299  566  118 
300  441  278 
301  562  482 
302  905  739 
303  696  741 
304  916  670 
305  880  715 
306  620  581 
307  661  297 
308  659  237 
309  81   114 
310  494  625 
311  960  693 
312  832  762 
313  591  354 
314  608  244 
315  16   329 
316  652  588 
317  660  641 
318  523  125 
319  567  405 
320  113  87  
321  5    87  
322  761  342 
323  71   55  
324  748  264 
325  581  158 
326  595  607 
327  326  489 
328  846  738 
329  671  584 
330  428  398 
331  571  7   
332  20   63  
333  642  756 
334  455  434 
335  590  294 
336  750  865 
337  688  672 
338  583  138 
339  798  286 
340  682  151 
341  965  609 
342  56   84  
343  508  358 
344  50   118 
345  546  114 
346  961  117 
347  876  748 
348  805  696 
349  446  374 
350  412  418 
351  444  655 
352  725  559 
353  583  306 
354  39   51  
355  579  121 
356  681  942 
357  530  107 
358  453  266 
359  106  176 
360  529  327 
361  721  75  
362  732  322 
363  840  755 
364  611  521 
365  491  149 
366  766  179 
367  598  348 
368  965  695 
369  585  166 
370  671  607 
371  157  173 
372  588  213 
373  684  209 
374  607  134 
375  591  120 
376  9    65  
377  474  225 
378  739  379 
379  253  62  
380  97   77  
381  936  778 
382  898  695 
383  582  57  
384  766  682 
385  417  745 
386  524  299 
387  585  607 
388  196  373 
389  831  729 
390  542  120 
391  610  689 
392  479  129 
393  569  279 
394  578  550 
395  863  392 
396  887  714 
397  565  507 
398  720  617 
399  620  521 
400  962  853 
401  635  121 
402  550  286 
403  660  380 
404  756  681 
405  805  661 
406  75   46  
407  58   106 
408  21   102 
409  624  595 
410  35   100 
411  890  748 
412  347  253 
413  464  198 
414  638  570 
415  625  551 
416  627  263 
417  402  421 
418  806  714 
419  309  34  
420  651  216 
421  540  260 
422  568  215 
423  885  671 
424  744  134 
425  575  173 
426  886  255 
427  711  367 
428  660  216 
429  966  641 
430  745  598 
431  857  761 
432  807  793 
433  688  630 
434  366  445 
435  717  307 
436  731  648 
437  590  500 
438  884  356 
439  672  546 
440  625  591 
441  533  334 
442  508  191 
443  482  500 
444  844  800 
445  749  827 
446  662  657 
447  613  654 
448  550  84  
449  487  149 
450  75   180 
451  44   94  
452  603  255 
453  440  393 
454  575  296 
455  753  496 
456  30   6   
457  674  584 
458  384  608 
459  656  389 
460  704  271 
461  644  339 
462  216  550 
463  477  340 
464  54   37  
465  664  462 
466  776  815 
467  411  43  
468  778  656 
469  500  709 
470  618  637 
471  532  196 
472  716  297 
473  33   161 
474  333  320 
475  645  318 
476  875  560 
477  288  544 
478  524  163 
479  674  156 
480  500  450 
481  408  411 
482  883  219 
483  726  144 
484  351  364 
485  558  140 
486  714  341 
487  951  597 
488  445  418 
489  632  226 
490  594  690 
491  639  328 
492  705  768 
493  794  902 
494  722  227 
495  94   91  
496  525  678 
497  499  284 
498  583  591 
499  720  254 
500  148  120 
501  46   344 
502  628  171 
503  625  287 
504  630  615 
505  621  253 
506  545  124 
507  817  759 
508  744  778 
509  664  683 
510  470  842 
511  352  407 
512  349  249 
513  652  623 
514  600  381 
515  447  455 
516  637  273 
517  577  333 
518  625  631 
519  625  670 
520  564  459 
521  770  887 
522  463  306 
523  722  498 
524  138  310 
525  499  372 
526  688  144 
527  390  413 
528  616  236 
529  803  151 
530  484  47  
531  239  53  
532  780  798 
533  790  773 
534  369  354 
535  665  269 
536  739  306 
537  854  594 
538  542  624 
539  75   184 
540  921  680 
541  570  146 
542  595  127 
543  499  402 
544  472  400 
545  590  560 
546  455  245 
547  423  120 
548  423  454 
549  456  435 
550  616  53  
551  773  728 
552  604  72  
553  876  741 
554  473  429 
555  60   52  
556  526  384 
557  431  393 
558  723  576 
559  232  91  
560  620  617 
561  754  53  
562  436  442 
563  453  138 
564  914  652 
565  575  242 
566  600  636 
567  415  164 
568  762  317 
569  77   163 
570  442  230 
571  4    123 
572  421  413 
573  732  450 
574  517  181 
575  601  276 
576  327  529 
577  548  671 
578  570  262 
579  77   42  
580  624  131 
581  129  116 
582  21   78  
583  807  494 
584  621  120 
585  326  284 
586  702  521 
587  700  375 
588  960  621 
589  453  216 
590  601  709 
591  315  296 
592  49   152 
593  728  322 
594  535  560 
595  761  744 
596  389  418 
597  437  677 
598  813  651 
599  622  683 
600  28   245 
601  465  459 
602  754  547 
603  523  190 
604  397  526 
605  29   169 
606  451  449 
607  564  249 
608  161  136 
609  15   106 
610  929  207 
611  45   134 
612  621  697 
613  779  183 
614  715  333 
615  493  714 
616  514  149 
617  31   106 
618  836  736 
619  476  485 
620  586  459 
621  537  497 
622  694  327 
623  866  811 
624  803  795 
625  626  590 
626  705  515 
627  516  312 
628  375  492 
629  959  776 
630  677  93  
631  526  188 
632  550  137 
633  163  153 
634  604  580 
635  871  621 
636  584  437 
637  149  221 
638  780  792 
639  539  583 
640  509  627 
641  698  298 
642  102  123 
643  472  438 
644  747  309 
645  70   120 
646  913  840 
647  852  748 
648  643  428 
649  364  494 
650  419  470 
651  784  713 
652  698  259 
653  633  390 
654  165  329 
655  75   35  
656  397  390 
657  248  225 
658  675  338 
659  350  330 
660  692  435 
661  851  717 
662  507  566 
663  428  394 
664  630  294 
665  715  304 
666  675  207 
667  629  789 
668  600  444 
669  452  421 
670  643  388 
671  426  403 
672  875  483 
673  721  447 
674  400  283 
675  621  295 
676  761  513 
677  631  666 
678  322  258 
679  505  546 
680  972  650 
681  782  721 
682  824  763 
683  824  735 
684  856  436 
685  715  743 
686  749  343 
687  557  67  
688  741  294 
689  723  295 
690  70   20  
691  978  635 
692  536  174 
693  583  645 
694  583  208 
695  577  137 
696  587  149 
697  560  563 
698  554  607 
699  245  57  
700  493  159 
701  827  423 
702  579  22  
703  566  187 
704  618  560 
705  879  757 
706  323  468 
707  605  206 
708  666  298 
709  364  318 
710  322  72  
711  377  438 
712  478  102 
713  597  244 
714  799  872 
715  731  763 
716  583  155 
717  847  729 
718  43   159 
719  648  682 
720  654  551 
721  42   140 
722  877  976 
723  443  307 
724  466  394 
725  345  411 
726  634  292 
727  71   205 
728  78   33  
729  403  247 
730  995  821 
731  704  566 
732  911  630 
733  36   297 
734  609  121 
735  424  353 
736  658  69  
737  834  715 
738  682  309 
739  380  437 
740  664  305 
741  617  336 
742  593  451 
743  621  648 
744  661  358 
745  626  597 
746  478  204 
747  738  254 
748  448  342 
749  451  407 
750  75   137 
751  35   84  
752  566  112 
753  668  429 
754  381  396 
755  883  716 
756  726  872 
757  747  238 
758  45   115 
759  827  788 
760  703  179 
761  675  388 
762  809  251 
763  571  588 
764  621  333 
765  95   142 
766  856  784 
767  600  581 
768  44   38  
769  851  462 
770  111  143 
771  467  367 
772  875  564 
773  885  848 
774  626  626 
775  90   67  
776  533  429 
777  423  386 
778  473  362 
779  735  221 
780  157  242 
781  584  66  
782  416  436 
783  102  43  
784  453  300 
785  540  86  
786  335  330 
787  855  724 
788  537  96  
789  73   27  
790  644  470 
791  623  324 
792  683  582 
793  874  642 
794  86   89  
795  671  637 
796  347  404 
797  53   256 
798  593  615 
799  437  445 
800  583  279 
801  658  518 
802  574  144 
803  479  153 
804  74   93  
805  833  586 
806  579  283 
807  838  293 
808  844  277 
809  721  147 
810  895  648 
811  596  181 
812  503  273 
813  898  757 
814  235  117 
815  719  459 
816  665  313 
817  690  227 
818  995  466 
819  290  492 
820  470  551 
821  626  885 
822  869  467 
823  703  318 
824  578  572 
825  43   103 
826  786  301 
827  791  837 
828  745  300 
829  661  316 
830  742  294 
831  534  197 
832  467  184 
833  842  757 
834  150  82  
835  700  257 
836  651  620 
837  380  339 
838  819  803 
839  622  171 
840  636  530 
841  897  602 
842  698  224 
843  611  634 
844  434  442 
845  703  475 
846  629  228 
847  861  760 
848  574  94  
849  576  661 
850  157  199 
851  858  774 
852  552  613 
853  116  219 
854  663  383 
855  802  772 
856  626  384 
857  28   255 
858  659  265 
859  588  417 
860  521  52  
861  60   107 
862  396  338 
863  488  203 
864  575  165 
865  1    135 
866  896  849 
867  378  421 
868  667  594 
869  603  164 
870  679  287 
871  671  351 
872  549  924 
873  462  173 
874  465  526 
875  778  685 
876  435  415 
877  837  101 
878  675  278 
879  463  283 
880  572  125 
881  592  286 
882  521  648 
883  667  492 
884  691  283 
885  647  850 
886  470  642 
887  223  236 
888  781  657 
889  628  487 
890  689  739 
891  349  642 
892  530  92  
893  525  264 
894  524  234 
895  643  355 
896  405  223 
897  563  547 
898  80   140 
899  375  68  
900  887  766 
901  875  857 
902  946  675 
903  634  97  
904  413  115 
905  617  573 
906  285  31  
907  685  307 
908  345  339 
909  733  641 
910  493  156 
911  691  57  
912  736  330 
913  448  287 
914  690  306 
915  148  101 
916  521  709 
917  730  365 
918  417  779 
919  817  622 
920  340  174 
921  599  772 
922  732  363 
923  727  406 
924  168  96  
925  630  623 
926  508  675 
927  691  453 
928  653  523 
929  89   160 
930  656  623 
931  503  123 
932  375  283 
933  387  378 
934  541  16  
935  369  690 
936  877  300 
937  645  319 
938  838  559 
939  157  51  
940  519  684 
941  486  284 
942  826  858 
943  523  515 
944  507  205 
945  30   92  
946  582  665 
947  685  637 
948  701  675 
949  792  775 
950  952  832 
951  366  477 
952  801  706 
953  487  366 
954  518  423 
955  520  578 
956  715  232 
957  753  638 
958  724  723 
959  452  305 
960  523  380 
961  605  630 
962  209  275 
963  405  426 
964  469  549 
965  550  342 
966  935  619 
967  343  422 
968  594  171 
969  280  340 
970  492  354 
971  137  116 
972  789  155 
973  722  687 
974  547  343 
975  801  624 
976  542  322 
977  714  819 
978  653  325 
979  612  158 
980  448  153 
981  343  591 
982  526  388 
983  715  760 
984  694  167 
985  614  593 
986  821  656 
987  791  760 
988  812  744 
989  753  744 
990  780  436 
991  668  305 
992  666  154 
993  607  176 
994  691  333 
995  899  843 
996  685  528 
997  679  734 
998  778  315 
999  556  606 
1000 60   105 
1001 762  711 
1002 598  33  
1003 437  327 
1004 644  609 
1005 520  26  
1006 702  301 
1007 41   65  
1008 469  378 
1009 553  20  
1010 787  422 
1011 78   51  
1012 443  370 
1013 663  616 
1014 493  220 
1015 459  340 
1016 379  395 
1017 870  301 
1018 886  774 
1019 586  631 
1020 581  375 
1021 420  382 
1022 766  653 
1023 437  430 
1024 461  225 
1025 569  166 
1026 655  141 
1027 606  559 
1028 654  158 
1029 818  568 
1030 542  421 
1031 711  199 
1032 987  838 
1033 72   52  
1034 805  857 
1035 646  441 
1036 653  247 
1037 405  554 
1038 353  324 
1039 347  552 
1040 956  721 
1041 494  297 
1042 914  798 
1043 898  740 
1044 652  224 
1045 733  646 
1046 78   255 
1047 742  402 
1048 476  523 
1049 645  473 
1050 2    724 
1051 20   52  
1052 614  596 
1053 611  203 
1054 685  251 
1055 843  759 
1056 618  174 
1057 590  416 
1058 695  282 
1059 711  573 
1060 40   43  
1061 807  770 
1062 496  90  
1063 542  251 
1064 596  301 
1065 656  618 
1066 174  71  
1067 196  111 
1068 458  646 
1069 47   0   
1070 379  474 
1071 542  342 
1072 653  626 
1073 558  160 
1074 799  648 
1075 348  199 
1076 898  778 
1077 483  388 
1078 834  742 
1079 822  825 
1080 750  330 
1081 800  437 
1082 606  277 
1083 816  767 
1084 676  328 
1085 605  318 
1086 565  187 
1087 319  428 
1088 587  250 
1089 32   80  
1090 66   78  
1091 0    137 
1092 301  116 
1093 754  798 
1094 886  693 
DEMAND_SECTION
1    0   
2    1   
3    1   
4    1   
5    1   
6    1   
7    1   
8    1   
9    1   
10   1   
11   1   
12   1   
13   1   
14   1   
15   1   
16   1   
17   1   
18   1   
19   1   
20   1   
21   1   
22   1   
23   1   
24   1   
25   1   
26   1   
27   1   
28   1   
29   1   
30   1   
31   1   
32   1   
33   1   
34   1   
35   1   
36   1   
37   1   
38   1   
39   1   
40   1   
41   1   
42   1   
43   1   
44   1   
45   1   
46   1   
47   1   
48   1   
49   1   
50   1   
51   1   
52   1   
53   1   
54   1   
55   1   
56   1   
57   1   
58   1   
59   1   
60   1   
61   1   
62   1   
63   1   
64   1   
65   1   
66   1   
67   1   
68   1   
69   1   
70   1   
71   1   
72   1   
73   1   
74   1   
75   1   
76   1   
77   1   
78   1   
79   1   
80   1   
81   1   
82   1   
83   1   
84   1   
85   1   
86   1   
87   1   
88   1   
89   1   
90   1   
91   1   
92   1   
93   1   
94   1   
95   1   
96   1   
97   1   
98   1   
99   1   
100  1   
101  1   
102  1   
103  1   
104  1   
105  1   
106  1   
107  1   
108  1   
109  1   
110  1   
111  1   
112  1   
113  1   
114  1   
115  1   
116  1   
117  1   
118  1   
119  1   
120  1   
121  1   
122  1   
123  1   
124  1   
125  1   
126  1   
127  1   
128  1   
129  1   
130  1   
131  1   
132  1   
133  1   
134  1   
135  1   
136  1   
137  1   
138  1   
139  1   
140  1   
141  1   
142  1   
143  1   
144  1   
145  1   
146  1   
147  1   
148  1   
149  1   
150  1   
151  1   
152  1   
153  1   
154  1   
155  1   
156  1   
157  1   
158  1   
159  1   
160  1   
161  1   
162  1   
163  1   
164  1   
165  1   
166  1   
167  1   
168  1   
169  1   
170  1   
171  1   
172  1   
173  1   
174  1   
175  1   
176  1   
177  1   
178  1   
179  1   
180  1   
181  1   
182  1   
183  1   
184  1   
185  1   
186  1   
187  1   
188  1   
189  1   
190  1   
191  1   
192  1   
193  1   
194  1   
195  1   
196  1   
197  1   
198  1   
199  1   
200  1   
201  1   
202  1   
203  1   
204  1   
205  1   
206  1   
207  1   
208  1   
209  1   
210  1   
211  1   
212  1   
213  1   
214  1   
215  1   
216  1   
217  1   
218  1   
219  1   
220  1   
221  1   
222  1   
223  1   
224  1   
225  1   
226  1   
227  1   
228  1   
229  1   
230  1   
231  1   
232  1   
233  1   
234  1   
235  1   
236  1   
237  1   
238  1   
239  1   
240  1   
241  1   
242  1   
243  1   
244  1   
245  1   
246  1   
247  1   
248  1   
249  1   
250  1   
251  1   
252  1   
253  1   
254  1   
255  1   
256  1   
257  1   
258  1   
259  1   
260  1   
261  1   
262  1   
263  1   
264  1   
265  1   
266  1   
267  1   
268  1   
269  1   
270  1   
271  1   
272  1   
273  1   
274  1   
275  1   
276  1   
277  1   
278  1   
279  1   
280  1   
281  1   
282  1   
283  1   
284  1   
285  1   
286  1   
287  1   
288  1   
289  1   
290  1   
291  1   
292  1   
293  1   
294  1   
295  1   
296  1   
297  1   
298  1   
299  1   
300  1   
301  1   
302  1   
303  1   
304  1   
305  1   
306  1   
307  1   
308  1   
309  1   
310  1   
311  1   
312  1   
313  1   
314  1   
315  1   
316  1   
317  1   
318  1   
319  1   
320  1   
321  1   
322  1   
323  1   
324  1   
325  1   
326  1   
327  1   
328  1   
329  1   
330  1   
331  1   
332  1   
333  1   
334  1   
335  1   
336  1   
337  1   
338  1   
339  1   
340  1   
341  1   
342  1   
343  1   
344  1   
345  1   
346  1   
347  1   
348  1   
349  1   
350  1   
351  1   
352  1   
353  1   
354  1   
355  1   
356  1   
357  1   
358  1   
359  1   
360  1   
361  1   
362  1   
363  1   
364  1   
365  1   
366  1   
367  1   
368  1   
369  1   
370  1   
371  1   
372  1   
373  1   
374  1   
375  1   
376  1   
377  1   
378  1   
379  1   
380  1   
381  1   
382  1   
383  1   
384  1   
385  1   
386  1   
387  1   
388  1   
389  1   
390  1   
391  1   
392  1   
393  1   
394  1   
395  1   
396  1   
397  1   
398  1   
399  1   
400  1   
401  1   
402  1   
403  1   
404  1   
405  1   
406  1   
407  1   
408  1   
409  1   
410  1   
411  1   
412  1   
413  1   
414  1   
415  1   
416  1   
417  1   
418  1   
419  1   
420  1   
421  1   
422  1   
423  1   
424  1   
425  1   
426  1   
427  1   
428  1   
429  1   
430  1   
431  1   
432  1   
433  1   
434  1   
435  1   
436  1   
437  1   
438  1   
439  1   
440  1   
441  1   
442  1   
443  1   
444  1   
445  1   
446  1   
447  1   
448  1   
449  1   
450  1   
451  1   
452  1   
453  1   
454  1   
455  1   
456  1   
457  1   
458  1   
459  1   
460  1   
461  1   
462  1   
463  1   
464  1   
465  1   
466  1   
467  1   
468  1   
469  1   
470  1   
471  1   
472  1   
473  1   
474  1   
475  1   
476  1   
477  1   
478  1   
479  1   
480  1   
481  1   
482  1   
483  1   
484  1   
485  1   
486  1   
487  1   
488  1   
489  1   
490  1   
491  1   
492  1   
493  1   
494  1   
495  1   
496  1   
497  1   
498  1   
499  1   
500  1   
501  1   
502  1   
503  1   
504  1   
505  1   
506  1   
507  1   
508  1   
509  1   
510  1   
511  1   
512  1   
513  1   
514  1   
515  1   
516  1   
517  1   
518  1   
519  1   
520  1   
521  1   
522  1   
523  1   
524  1   
525  1   
526  1   
527  1   
528  1   
529  1   
530  1   
531  1   
532  1   
533  1   
534  1   
535  1   
536  1   
537  1   
538  1   
539  1   
540  1   
541  1   
542  1   
543  1   
544  1   
545  1   
546  1   
547  1   
548  1   
549  1   
550  1   
551  1   
552  1   
553  1   
554  1   
555  1   
556  1   
557  1   
558  1   
559  1   
560  1   
561  1   
562  1   
563  1   
564  1   
565  1   
566  1   
567  1   
568  1   
569  1   
570  1   
571  1   
572  1   
573  1   
574  1   
575  1   
576  1   
577  1   
578  1   
579  1   
580  1   
581  1   
582  1   
583  1   
584  1   
585  1   
586  1   
587  1   
588  1   
589  1   
590  1   
591  1   
592  1   
593  1   
594  1   
595  1   
596  1   
597  1   
598  1   
599  1   
600  1   
601  1   
602  1   
603  1   
604  1   
605  1   
606  1   
607  1   
608  1   
609  1   
610  1   
611  1   
612  1   
613  1   
614  1   
615  1   
616  1   
617  1   
618  1   
619  1   
620  1   
621  1   
622  1   
623  1   
624  1   
625  1   
626  1   
627  1   
628  1   
629  1   
630  1   
631  1   
632  1   
633  1   
634  1   
635  1   
636  1   
637  1   
638  1   
639  1   
640  1   
641  1   
642  1   
643  1   
644  1   
645  1   
646  1   
647  1   
648  1   
649  1   
650  1   
651  1   
652  1   
653  1   
654  1   
655  1   
656  1   
657  1   
658  1   
659  1   
660  1   
661  1   
662  1   
663  1   
664  1   
665  1   
666  1   
667  1   
668  1   
669  1   
670  1   
671  1   
672  1   
673  1   
674  1   
675  1   
676  1   
677  1   
678  1   
679  1   
680  1   
681  1   
682  1   
683  1   
684  1   
685  1   
686  1   
687  1   
688  1   
689  1   
690  1   
691  1   
692  1   
693  1   
694  1   
695  1   
696  1   
697  1   
698  1   
699  1   
700  1   
701  1   
702  1   
703  1   
704  1   
705  1   
706  1   
707  1   
708  1   
709  1   
710  1   
711  1   
712  1   
713  1   
714  1   
715  1   
716  1   
717  1   
718  1   
719  1   
720  1   
721  1   
722  1   
723  1   
724  1   
725  1   
726  1   
727  1   
728  1   
729  1   
730  1   
731  1   
732  1   
733  1   
734  1   
735  1   
736  1   
737  1   
738  1   
739  1   
740  1   
741  1   
742  1   
743  1   
744  1   
745  1   
746  1   
747  1   
748  1   
749  1   
750  1   
751  1   
752  1   
753  1   
754  1   
755  1   
756  1   
757  1   
758  1   
759  1   
760  1   
761  1   
762  1   
763  1   
764  1   
765  1   
766  1   
767  1   
768  1   
769  1   
770  1   
771  1   
772  1   
773  1   
774  1   
775  1   
776  1   
777  1   
778  1   
779  1   
780  1   
781  1   
782  1   
783  1   
784  1   
785  1   
786  1   
787  1   
788  1   
789  1   
790  1   
791  1   
792  1   
793  1   
794  1   
795  1   
796  1   
797  1   
798  1   
799  1   
800  1   
801  1   
802  1   
803  1   
804  1   
805  1   
806  1   
807  1   
808  1   
809  1   
810  1   
811  1   
812  1   
813  1   
814  1   
815  1   
816  1   
817  1   
818  1   
819  1   
820  1   
821  1   
822  1   
823  1   
824  1   
825  1   
826  1   
827  1   
828  1   
829  1   
830  1   
831  1   
832  1   
833  1   
834  1   
835  1   
836  1   
837  1   
838  1   
839  1   
840  1   
841  1   
842  1   
843  1   
844  1   
845  1   
846  1   
847  1   
848  1   
849  1   
850  1   
851  1   
852  1   
853  1   
854  1   
855  1   
856  1   
857  1   
858  1   
859  1   
860  1   
861  1   
862  1   
863  1   
864  1   
865  1   
866  1   
867  1   
868  1   
869  1   
870  1   
871  1   
872  1   
873  1   
874  1   
875  1   
876  1   
877  1   
878  1   
879  1   
880  1   
881  1   
882  1   
883  1   
884  1   
885  1   
886  1   
887  1   
888  1   
889  1   
890  1   
891  1   
892  1   
893  1   
894  1   
895  1   
896  1   
897  1   
898  1   
899  1   
900  1   
901  1   
902  1   
903  1   
904  1   
905  1   
906  1   
907  1   
908  1   
909  1   
910  1   
911  1   
912  1   
913  1   
914  1   
915  1   
916  1   
917  1   
918  1   
919  1   
920  1   
921  1   
922  1   
923  1   
924  1   
925  1   
926  1   
927  1   
928  1   
929  1   
930  1   
931  1   
932  1   
933  1   
934  1   
935  1   
936  1   
937  1   
938  1   
939  1   
940  1   
941  1   
942  1   
943  1   
944  1   
945  1   
946  1   
947  1   
948  1   
949  1   
950  1   
951  1   
952  1   
953  1   
954  1   
955  1   
956  1   
957  1   
958  1   
959  1   
960  1   
961  1   
962  1   
963  1   
964  1   
965  1   
966  1   
967  1   
968  1   
969  1   
970  1   
971  1   
972  1   
973  1   
974  1   
975  1   
976  1   
977  1   
978  1   
979  1   
980  1   
981  1   
982  1   
983  1   
984  1   
985  1   
986  1   
987  1   
988  1   
989  1   
990  1   
991  1   
992  1   
993  1   
994  1   
995  1   
996  1   
997  1   
998  1   
999  1   
1000 1   
1001 1   
1002 1   
1003 1   
1004 1   
1005 1   
1006 1   
1007 1   
1008 1   
1009 1   
1010 1   
1011 1   
1012 1   
1013 1   
1014 1   
1015 1   
1016 1   
1017 1   
1018 1   
1019 1   
1020 1   
1021 1   
1022 1   
1023 1   
1024 1   
1025 1   
1026 1   
1027 1   
1028 1   
1029 1   
1030 1   
1031 1   
1032 1   
1033 1   
1034 1   
1035 1   
1036 1   
1037 1   
1038 1   
1039 1   
1040 1   
1041 1   
1042 1   
1043 1   
1044 1   
1045 1   
1046 1   
1047 1   
1048 1   
1049 1   
1050 1   
1051 1   
1052 1   
1053 1   
1054 1   
1055 1   
1056 1   
1057 1   
1058 1   
1059 1   
1060 1   
1061 1   
1062 1   
1063 1   
1064 1   
1065 1   
1066 1   
1067 1   
1068 1   
1069 1   
1070 1   
1071 1   
1072 1   
1073 1   
1074 1   
1075 1   
1076 1   
1077 1   
1078 1   
1079 1   
1080 1   
1081 1   
1082 1   
1083 1   
1084 1   
1085 1   
1086 1   
1087 1   
1088 1   
1089 1   
1090 1   
1091 1   
1092 1   
1093 1   
1094 1   
DEPOT_SECTION
1
-1
EOF
